
Gurobi 9.1.0 (win64) logging started Fri Dec 18 22:02:19 2020

Changed value of parameter LogFile to log/S76D10.log
   Prev:   Default: 
Changed value of parameter TimeLimit to 720.0
   Prev: inf  Min: 0.0  Max: inf  Default: inf
Gurobi Optimizer version 9.1.0 build v9.1.0rc0 (win64)
Thread count: 6 physical cores, 12 logical processors, using up to 12 threads
Optimize a model with 1407200 rows, 751830 columns and 11115900 nonzeros
Model fingerprint: 0xf232c554
Variable types: 75 continuous, 751755 integer (664355 binary)
Coefficient statistics:
  Matrix range     [1e+00, 1e+03]
  Objective range  [2e+00, 9e+01]
  Bounds range     [1e+00, 1e+00]
  RHS range        [1e+00, 8e+01]
Presolve removed 676691 rows and 13570 columns (presolve time = 7s) ...
Presolve removed 667951 rows and 4830 columns
Presolve time: 8.11s
Presolved: 739249 rows, 747000 columns, 3573970 nonzeros
Variable types: 75 continuous, 746925 integer (659410 binary)
Found heuristic solution: objective 12299.330807
Found heuristic solution: objective 10566.558315

Deterministic concurrent LP optimizer: primal simplex, dual simplex, and barrier
Showing barrier log only...

Root barrier log...

Elapsed ordering time = 5s
Ordering time: 7.91s

Barrier statistics:
 Dense cols : 75
 AA' NZ     : 3.969e+06
 Factor NZ  : 1.468e+07 (roughly 700 MBytes of memory)
 Factor Ops : 7.561e+09 (less than 1 second per iteration)
 Threads    : 4

                  Objective                Residual
Iter       Primal          Dual         Primal    Dual     Compl     Time
   0   5.59761380e+08 -8.90025117e+08  5.58e+04 2.25e+00  1.94e+04    29s
   1   4.44474360e+08 -1.19284048e+09  4.43e+04 5.46e-09  1.51e+04    29s
   2   3.62260599e+07 -1.07946555e+09  2.89e+03 7.02e-09  1.37e+03    30s
   3   1.06076228e+07 -4.70105633e+08  2.91e+02 2.05e-06  2.61e+02    31s
   4   7.61303395e+06 -1.26224577e+08  1.43e+01 2.46e-06  6.11e+01    32s
   5   5.98404197e+06 -5.12454179e+07  3.61e-02 2.89e-06  2.58e+01    32s
   6   2.61016035e+06 -6.01198433e+06  2.25e-05 4.48e-07  3.89e+00    33s
   7   6.14968268e+05 -6.84524601e+05  9.52e-08 2.47e-07  5.87e-01    34s
   8   1.01969011e+05 -1.55244138e+05  1.23e-08 6.27e-08  1.16e-01    35s
   9   7.39062850e+03 -8.64690774e+04  4.26e-10 3.53e-08  4.24e-02    35s
  10   4.54679373e+03 -4.43919741e+04  2.50e-10 1.72e-08  2.21e-02    36s
  11   2.96738840e+03 -2.04598270e+04  1.38e-10 7.43e-09  1.06e-02    37s
  12   2.37427252e+03 -1.01381806e+04  1.01e-10 3.64e-09  5.65e-03    37s
  13   1.51423813e+03 -3.91862223e+03  5.12e-11 1.88e-09  2.45e-03    38s
  14   7.90844890e+02 -8.38070803e+02  1.30e-11 5.29e-10  7.35e-04    39s
  15   5.57003947e+02  3.17930324e+02  2.39e-12 8.21e-11  1.08e-04    40s
  16   4.90986533e+02  4.32358630e+02  1.51e-13 2.70e-11  2.65e-05    40s
  17   4.88113783e+02  4.80106063e+02  5.35e-14 6.72e-12  3.61e-06    41s
  18   4.85555673e+02  4.85441016e+02  4.06e-15 3.07e-13  5.17e-08    42s
  19   4.85525827e+02  4.85525772e+02  1.05e-16 3.26e-14  2.48e-11    43s
  20   4.85525827e+02  4.85525772e+02  4.17e-07 3.40e-14  2.48e-11    44s
  21   4.85525827e+02  4.85525772e+02  4.17e-07 3.66e-14  2.48e-11    45s
  22   4.85525827e+02  4.85525772e+02  4.12e-07 4.32e-14  2.48e-11    46s
  23   4.85525827e+02  4.85525772e+02  4.11e-07 4.72e-14  2.47e-11    47s
  24   4.85525827e+02  4.85525772e+02  4.10e-07 4.72e-14  2.47e-11    48s
  25   4.85525827e+02  4.85525772e+02  4.10e-07 4.99e-14  2.47e-11    49s
  26   4.85525827e+02  4.85525772e+02  4.09e-07 5.08e-14  2.47e-11    50s
  27   4.85525827e+02  4.85525772e+02  4.08e-07 5.08e-14  2.47e-11    51s

Barrier solved model in 27 iterations and 51.19 seconds
Optimal objective 4.85525827e+02


Root crossover log...

   69697 DPushes remaining with DInf 0.0000000e+00                52s
       0 DPushes remaining with DInf 0.0000000e+00                54s

    6595 PPushes remaining with PInf 0.0000000e+00                54s
    5267 PPushes remaining with PInf 0.0000000e+00                55s
    2477 PPushes remaining with PInf 0.0000000e+00                60s
    1194 PPushes remaining with PInf 0.0000000e+00                65s
       0 PPushes remaining with PInf 0.0000000e+00                71s

  Push phase complete: Pinf 0.0000000e+00, Dinf 2.2008106e+03     71s


Root simplex log...

Iteration    Objective       Primal Inf.    Dual Inf.      Time
   74639    4.8552580e+02   0.000000e+00   2.200811e+03     71s
   74929    4.8552580e+02   0.000000e+00   2.308206e+04     78s
   75099    4.8552576e+02   0.000000e+00   5.225966e+04     85s
   75269    4.8552571e+02   0.000000e+00   4.881449e+04     92s
   75369    4.8552567e+02   0.000000e+00   6.049471e+05     96s
   75569    4.8552558e+02   0.000000e+00   3.656460e+04    103s
   75759    4.8552523e+02   0.000000e+00   2.710139e+05    108s
   75889    4.8552288e+02   0.000000e+00   4.629722e+04    111s
   76149    4.8552056e+02   0.000000e+00   2.144193e+06    117s
   76259    4.8551967e+02   0.000000e+00   9.939930e+04    120s
   76469    4.8551952e+02   0.000000e+00   9.412782e+03    126s
   76709    4.8551924e+02   0.000000e+00   6.233073e+04    131s
   76969    4.8551890e+02   0.000000e+00   3.206263e+05    137s
   77159    4.8551877e+02   0.000000e+00   1.965192e+05    143s
   77269    4.8551859e+02   0.000000e+00   8.451035e+04    145s
   77549    4.8551735e+02   0.000000e+00   1.213863e+06    151s
   77769    4.8551706e+02   0.000000e+00   1.228813e+06    157s
   78089    4.8551669e+02   0.000000e+00   3.298770e+05    165s
   78459    4.8551594e+02   0.000000e+00   4.420589e+05    173s
   78579    4.8551546e+02   0.000000e+00   9.825365e+04    176s
   78789    4.8551486e+02   0.000000e+00   8.987065e+04    181s
   78999    4.8551344e+02   0.000000e+00   6.753955e+05    187s
   79109    4.8551282e+02   0.000000e+00   1.749892e+06    190s
   79559    4.8551095e+02   0.000000e+00   1.688637e+06    198s
   79659    4.8551084e+02   0.000000e+00   3.761039e+05    201s
   79879    4.8551033e+02   0.000000e+00   1.541201e+06    207s
   79999    4.8551014e+02   0.000000e+00   1.223113e+05    210s
   80209    4.8550993e+02   0.000000e+00   2.748867e+04    216s
   80449    4.8550947e+02   0.000000e+00   3.437004e+05    221s
   80669    4.8550926e+02   0.000000e+00   1.419506e+06    226s
   80979    4.8550889e+02   0.000000e+00   2.037431e+05    234s
   81089    4.8550868e+02   0.000000e+00   9.437673e+04    237s
   81349    4.8550823e+02   0.000000e+00   4.478746e+05    241s
   81649    4.8550751e+02   0.000000e+00   9.334562e+05    246s
Concurrent spin time: 0.05s

Solved with dual simplex

Root relaxation: objective 4.855258e+02, 124673 iterations, 232.50 seconds
Total elapsed time = 437.18s
Total elapsed time = 452.36s
Total elapsed time = 462.76s
Total elapsed time = 467.03s

    Nodes    |    Current Node    |     Objective Bounds      |     Work
 Expl Unexpl |  Obj  Depth IntInf | Incumbent    BestBd   Gap | It/Node Time

     0     0  485.52580    0 3198 10566.5583  485.52580  95.4%     -  467s
H    0     0                    8065.9005920  485.52580  94.0%     -  720s

Explored 1 nodes (357258 simplex iterations) in 720.26 seconds
Thread count was 12 (of 12 available processors)

Solution count 3: 8065.9 10566.6 12299.3 

Time limit reached
Best objective 8.065900592007e+03, best bound 4.855257973329e+02, gap 93.9805%
